# Solution for model GasLib-40
# Objective value = 3.1195318191595970e+01
loadshed[innode_1] 0
loadshed[innode_2] 0
loadshed[innode_3] 0
loadshed[innode_4] 0
loadshed[innode_5] 0
loadshed[innode_6] 0
loadshed[innode_7] 0
loadshed[innode_8] 0
loadshed[source_1] -1.7220055992547434e-01
loadshed[source_2] -0.00573986135765403
loadshed[source_3] 3.7526639622656544e-01
loadshed[sink_1] 0
loadshed[sink_2] 0
loadshed[sink_3] 0
loadshed[sink_4] 0
loadshed[sink_5] 0
loadshed[sink_6] 0
loadshed[sink_7] 0
loadshed[sink_8] 0
loadshed[sink_9] 0
loadshed[sink_10] 0
loadshed[sink_11] 0
loadshed[sink_12] 1
loadshed[sink_13] 0
loadshed[sink_14] 0
loadshed[sink_15] 0
loadshed[sink_16] 0
loadshed[sink_17] 0
loadshed[sink_18] 0
loadshed[sink_19] 0
loadshed[sink_20] 7.1615322103220724e-01
loadshed[sink_21] 1.9133120342206847e-01
loadshed[sink_22] 0
loadshed[sink_23] 0
loadshed[sink_24] 0
loadshed[sink_25] 0
loadshed[sink_26] 0
loadshed[sink_27] 0
loadshed[sink_28] 0
loadshed[sink_29] 0
flow[source_1,sink_3] 1.8531351212988488e+02
flow[innode_1,sink_16] 1.6354166666666970e+01
flow[innode_6,sink_13] 1.5714857709025864e+01
flow[sink_13,sink_14] -6.3930895764080375e-01
flow[sink_14,sink_10] -1.6993475624307393e+01
flow[sink_25,sink_26] 2.1411718180840376e+02
flow[sink_26,sink_9] 1.9776301514173707e+02
flow[sink_9,sink_18] 1.8140884847507041e+02
flow[sink_26,sink_4] 0
flow[sink_4,sink_20] 2.2407684519357574e+00
flow[sink_18,sink_6] 1.6505468180840376e+02
flow[sink_25,innode_8] -1.5260517879654856e+02
flow[sink_6,sink_7] 1.1599218180840353e+02
flow[sink_6,sink_22] 3.2708333333333641e+01
flow[sink_7,sink_24] 29.5792709440349
flow[sink_22,sink_1] 1.6354166666666970e+01
flow[sink_24,sink_21] 1.3225104277368256e+01
flow[sink_21,sink_12] 0
flow[sink_7,sink_5] 7.0058744197702438e+01
flow[sink_5,sink_17] 5.3704577531035774e+01
flow[sink_17,sink_4] 1.8594935118602450e+01
flow[sink_17,sink_8] 1.8755475745766716e+01
flow[sink_3,sink_23] 16.3541666666697
flow[sink_8,sink_20] 2.4013090791000309e+00
flow[sink_25,sink_20] 0
flow[sink_25,sink_15] -9.3581027387547124e+01
flow[sink_15,sink_29] -61.4578309942101
flow[sink_29,sink_28] 1.6354166666667879e+01
flow[sink_29,sink_2] 6.4831529726670624e+01
flow[sink_2,sink_15] 4.8477363060003881e+01
flow[sink_29,innode_7] -1.5899769405421523e+02
flow[innode_4,sink_19] 9.8764308957654421e+01
flow[sink_19,innode_3] 3.2235037282540809e+01
flow[innode_4,innode_5] 0
flow[sink_27,innode_5] 0
flow[sink_27,sink_19] -1.6354166666679703e+01
flow[sink_10,sink_11] 3.2708333333333641e+01
flow[sink_10,innode_2] -3.3820938341767260e+01
flow[sink_10,innode_3] -3.2235037282540809e+01
flow[innode_6,sink_25] -1.5714857709025864e+01
flow[sink_11,innode_1] 1.6354166666666970e+01
flow[sink_19,innode_2] 3.3820938341767260e+01
flow[source_3,innode_4] 9.8764308957654421e+01
flow[source_2,innode_7] 1.5899769405421523e+02
flow[sink_3,innode_8] 1.5260517879654856e+02
pressure[innode_1] 7.5072778607215753e+01
pressure[innode_2] 77.0120561912319
pressure[innode_3] 76.9406753513917
pressure[innode_4] 81.01325
pressure[innode_5] 76.6609261940884
pressure[innode_6] 7.4506201665626762e+01
pressure[innode_7] 81.01325
pressure[innode_8] 8.0393817721277372e+01
pressure[source_1] 81.01325
pressure[source_2] 81.01325
pressure[source_3] 81.01325
pressure[sink_1] 3.4516985550156875e+01
pressure[sink_2] 7.5118428742004923e+01
pressure[sink_3] 8.0393817721277372e+01
pressure[sink_4] 1.1776431926386672e+00
pressure[sink_5] 5.8888831361945808e+00
pressure[sink_6] 3.6618063160544246e+01
pressure[sink_7] 3.5025766987830153e+01
pressure[sink_8] 1.1805874725528374e+00
pressure[sink_9] 4.7589427426383793e+01
pressure[sink_10] 75.2244799148193
pressure[sink_11] 7.5072778607215753e+01
pressure[sink_12] 1.01325
pressure[sink_13] 7.4419568281273584e+01
pressure[sink_14] 7.4420712379110370e+01
pressure[sink_15] 7.4960160835852733e+01
pressure[sink_16] 7.4051128772398073e+01
pressure[sink_17] 1.8882802979684254e+00
pressure[sink_18] 4.1025514597198793e+01
pressure[sink_19] 77.0120561912319
pressure[sink_20] 1.01325
pressure[sink_21] 1.01325
pressure[sink_22] 3.5580754692511881e+01
pressure[sink_23] 8.0229099709617586e+01
pressure[sink_24] 1.1597057422845334e+00
pressure[sink_25] 7.4506201665626762e+01
pressure[sink_26] 5.9426054294908532e+01
pressure[sink_27] 76.6609261940884
pressure[sink_28] 7.6465402283183380e+01
pressure[sink_29] 7.6760684556800570e+01
interdiction[source_1,sink_3] 0
interdiction[innode_1,sink_16] 0
interdiction[innode_6,sink_13] 0
interdiction[sink_13,sink_14] 0
interdiction[sink_14,sink_10] 0
interdiction[sink_25,sink_26] 0
interdiction[sink_26,sink_9] 0
interdiction[sink_9,sink_18] 0
interdiction[sink_26,sink_4] 1
interdiction[sink_4,sink_20] 0
interdiction[sink_18,sink_6] 0
interdiction[sink_25,innode_8] 0
interdiction[sink_6,sink_7] 0
interdiction[sink_6,sink_22] 0
interdiction[sink_7,sink_24] 0
interdiction[sink_22,sink_1] 0
interdiction[sink_24,sink_21] 0
interdiction[sink_21,sink_12] 0
interdiction[sink_7,sink_5] 0
interdiction[sink_5,sink_17] 0
interdiction[sink_17,sink_4] 0
interdiction[sink_17,sink_8] 0
interdiction[sink_3,sink_23] 0
interdiction[sink_8,sink_20] 0
interdiction[sink_25,sink_20] 1
interdiction[sink_25,sink_15] 0
interdiction[sink_15,sink_29] 0
interdiction[sink_29,sink_28] 0
interdiction[sink_29,sink_2] 0
interdiction[sink_2,sink_15] 0
interdiction[sink_29,innode_7] 0
interdiction[innode_4,sink_19] 0
interdiction[sink_19,innode_3] 0
interdiction[innode_4,innode_5] 1
interdiction[sink_27,innode_5] 0
interdiction[sink_27,sink_19] 0
interdiction[sink_10,sink_11] 0
interdiction[sink_10,innode_2] 0
interdiction[sink_10,innode_3] 0
interdiction[innode_6,sink_25] 0
interdiction[sink_11,innode_1] 0
interdiction[sink_19,innode_2] 0
interdiction[source_3,innode_4] 0
interdiction[source_2,innode_7] 0
interdiction[sink_3,innode_8] 0
WCcheckFlow[source_1,sink_3] 39
WCcheckFlow[innode_1,sink_16] 1
WCcheckFlow[innode_6,sink_13] 13
WCcheckFlow[sink_13,sink_14] 12
WCcheckFlow[sink_14,sink_10] 11
WCcheckFlow[sink_25,sink_26] 15
WCcheckFlow[sink_26,sink_9] 14
WCcheckFlow[sink_9,sink_18] 13
WCcheckFlow[sink_26,sink_4] 0
WCcheckFlow[sink_4,sink_20] 1
WCcheckFlow[sink_18,sink_6] 12
WCcheckFlow[sink_25,innode_8] -36
WCcheckFlow[sink_6,sink_7] 9
WCcheckFlow[sink_6,sink_22] 2
WCcheckFlow[sink_7,sink_24] 3
WCcheckFlow[sink_22,sink_1] 1
WCcheckFlow[sink_24,sink_21] 2
WCcheckFlow[sink_21,sink_12] 1
WCcheckFlow[sink_7,sink_5] 5
WCcheckFlow[sink_5,sink_17] 4
WCcheckFlow[sink_17,sink_4] 2
WCcheckFlow[sink_17,sink_8] 1
WCcheckFlow[sink_3,sink_23] 1
WCcheckFlow[sink_8,sink_20] 0
WCcheckFlow[sink_25,sink_20] 0
WCcheckFlow[sink_25,sink_15] 6
WCcheckFlow[sink_15,sink_29] 5
WCcheckFlow[sink_29,sink_28] 1
WCcheckFlow[sink_29,sink_2] 1
WCcheckFlow[sink_2,sink_15] 0
WCcheckFlow[sink_29,innode_7] 2
WCcheckFlow[innode_4,sink_19] -2
WCcheckFlow[sink_19,innode_3] -5
WCcheckFlow[innode_4,innode_5] 0
WCcheckFlow[sink_27,innode_5] 1
WCcheckFlow[sink_27,sink_19] -2
WCcheckFlow[sink_10,sink_11] 3
WCcheckFlow[sink_10,innode_2] 1
WCcheckFlow[sink_10,innode_3] 6
WCcheckFlow[innode_6,sink_25] -14
WCcheckFlow[sink_11,innode_1] 2
WCcheckFlow[sink_19,innode_2] 0
WCcheckFlow[source_3,innode_4] -1
WCcheckFlow[source_2,innode_7] -1
WCcheckFlow[sink_3,innode_8] 37
